m = 1; % Numero de LINACs
p = 1; % Numero de nuevos pacientes
s = 3; % Sesiones por tanda

% Tiempo disponible para cada LINAC (sacando el tiempo ya comprometido)
disponible = array2d(1..m, 1..7*3,
  [
    % Disponibilidad en los 21 dias del LINAC 1
    48, 48, 48, 48, 24, 48, 48,
    48, 48, 48, 48, 36, 48, 48,
    48, 48, 48, 48, 48, 48, 48
  ]);

% Dias de la semana en los que se hizo la solicitud (1=Lunes, ..., 5=Viernes)
solicitud = [5];

% Duracion de cada sesion por paciente
duracion = array2d(1..p, 1..s,
  [
    4, 5, 3
  ]);

% Separacion ideal entre sesiones
separacion = array2d(1..p, 1..s,
  [
    3, 2, 2
  ]);
